unsat
(:cnf-encoding-aux-vars   85
 :eliminated-applications 4
 :eliminated-vars         116
 :max-memory              18.89
 :memory                  18.38
 :nlsat-conflicts         5
 :nlsat-decisions         7
 :nlsat-propagations      25
 :num-allocs              175922
 :rlimit-count            74732
 :time                    0.02
 :total-time              0.02)
